(set-option :produce-models true)
(set-logic QF_UF)
(declare-fun p58() Bool)
(declare-fun p9() Bool)
(declare-fun p11() Bool)
(declare-fun p56() Bool)
(declare-fun p28() Bool)
(declare-fun p17() Bool)
(declare-fun p43() Bool)
(declare-fun p32() Bool)
(declare-fun p53() Bool)
(declare-fun p16() Bool)
(declare-fun p54() Bool)
(declare-fun p19() Bool)
(declare-fun p18() Bool)
(declare-fun p31() Bool)
(declare-fun p22() Bool)
(declare-fun p4() Bool)
(declare-fun p3() Bool)
(declare-fun p41() Bool)
(declare-fun p15() Bool)
(declare-fun p25() Bool)
(declare-fun p27() Bool)
(declare-fun p10() Bool)
(declare-fun p23() Bool)
(declare-fun p57() Bool)
(declare-fun p42() Bool)
(declare-fun p12() Bool)
(declare-fun p1() Bool)
(declare-fun p51() Bool)
(declare-fun p7() Bool)
(declare-fun p38() Bool)
(declare-fun p2() Bool)
(declare-fun p26() Bool)
(declare-fun p6() Bool)
(declare-fun p39() Bool)
(declare-fun p55() Bool)
(declare-fun p0() Bool)
(declare-fun p5() Bool)
(declare-fun p50() Bool)
(declare-fun p33() Bool)
(declare-fun p47() Bool)
(declare-fun p37() Bool)
(declare-fun p40() Bool)
(declare-fun p49() Bool)
(declare-fun p34() Bool)
(declare-fun p46() Bool)
(declare-fun p36() Bool)
(declare-fun p48() Bool)
(declare-fun p20() Bool)
(declare-fun p30() Bool)
(declare-fun p59() Bool)
(declare-fun p8() Bool)
(declare-fun p24() Bool)
(declare-fun p21() Bool)
(declare-fun p45() Bool)
(declare-fun p29() Bool)
(declare-fun p14() Bool)
(declare-fun p35() Bool)
(declare-fun p52() Bool)
(declare-fun p44() Bool)
(declare-fun p13() Bool)
(assert
(and (or p58 (not p9) (not p11)) (or (not p56) (not p28) (not p17)) (or (not p11) p43 (not p32)) (or (not p53) p16 (not p54)) (or (not p19) p18 (not p31)) (or (not p22) (not p53) (not p4)) (or p3 p41 (not p15)) (or (not p25) p27 p10) (or (not p53) (not p23) (not p57)) (or p22 p9 p42) (or (not p12) (not p22) p1) (or (not p51) p10 (not p7)) (or p9 p38 p56) (or p17 p22 p38) (or p2 (not p26) p18) (or p6 p9 p12) (or (not p51) (not p39) (not p55)) (or p0 (not p16) (not p5)) (or (not p50) (not p33) (not p58)) (or (not p18) (not p51) p47) (or p37 p40 (not p49)) (or p5 (not p34) p53) (or (not p43) (not p40) p2) (or p9 p43 (not p46)) (or (not p49) (not p32) p4) (or p31 (not p46) (not p18)) (or p46 (not p10) (not p36)) (or (not p17) p16 p41) (or (not p10) p10 (not p36)) (or p4 (not p48) (not p48)) (or p20 p30 p53) (or (not p36) (not p26) p1) (or (not p51) (not p6) p51) (or (not p16) p48 p17) (or (not p49) p22 p51) (or p15 p54 p27) (or (not p56) p40 (not p7)) (or p39 p40 (not p59)) (or p59 p55 (not p8)) (or p30 (not p34) p32) (or (not p30) (not p24) p8) (or (not p39) (not p8) p57) (or (not p21) (not p20) (not p46)) (or (not p25) p42 (not p48)) (or (not p26) p51 p33) (or p36 (not p45) p10) (or (not p46) (not p22) (not p11)) (or (not p0) (not p54) p26) (or p57 (not p56) p46) (or (not p54) (not p10) (not p3)) (or p11 p58 (not p37)) (or p57 (not p8) (not p2)) (or (not p58) p6 p4) (or p46 (not p15) (not p36)) (or (not p19) p31 p56) (or (not p3) p43 p43) (or (not p33) p50 (not p8)) (or p42 (not p31) p0) (or (not p56) (not p42) (not p32)) (or (not p43) p30 (not p56)) (or (not p56) p29 (not p21)) (or (not p10) p16 p20) (or (not p14) p20 p18) (or p58 (not p24) (not p26)) (or (not p33) (not p5) p1) (or (not p35) (not p10) (not p17)) (or (not p56) (not p47) p2) (or p46 (not p57) (not p8)) (or (not p12) p29 p16) (or (not p42) (not p9) (not p24)) (or (not p46) (not p38) p18) (or (not p15) (not p14) p46) (or p54 p34 (not p29)) (or (not p31) (not p10) p12) (or p20 p10 (not p11)) (or p22 p33 p33) (or p19 p2 (not p57)) (or p17 p1 (not p34)) (or p37 (not p14) p42) (or p42 p51 (not p0)) (or (not p56) (not p56) (not p10)) (or p46 (not p12) (not p52)) (or (not p52) p31 p34) (or p18 p36 p8) (or (not p30) (not p58) p0) (or p44 (not p15) (not p12)) (or (not p44) (not p12) p33) (or p38 (not p34) (not p2)) (or (not p45) (not p19) (not p44)) (or (not p58) (not p24) p18) (or p6 p58 p21) (or p59 p55 (not p13)) (or p0 p23 p27) (or p29 (not p24) p37) (or (not p21) (not p7) p41) (or p38 (not p20) p0) (or (not p10) (not p54) p49) (or (not p10) p47 p57) (or (not p45) (not p46) (not p25)) (or p13 (not p14) (not p22)) (or (not p56) p6 p24) (or p41 p5 p46) (or p52 (not p3) (not p58)) (or p8 (not p50) p49) (or (not p45) p18 (not p43)) (or p6 p9 p1) (or (not p23) (not p30) p39) (or (not p47) (not p46) p53) (or p25 p31 p48) (or (not p24) (not p11) (not p59)) (or p50 (not p39) p33) (or p10 (not p37) p9) (or p26 (not p9) (not p54)) (or (not p31) (not p23) (not p23)) (or (not p12) p43 p10) (or (not p22) p44 p29) (or p14 p51 (not p43)) (or p38 p24 (not p53)) (or p26 p22 p51) (or p15 (not p7) p3) (or p2 (not p4) p11) (or (not p2) p12 (not p30)) (or (not p14) p8 (not p31)) (or (not p51) p26 (not p4)) (or (not p31) p7 (not p38)) (or (not p39) p38 p7) (or p19 (not p6) (not p28)) (or p29 p53 (not p55)) (or (not p55) p14 (not p48)) (or (not p41) (not p47) (not p17)) (or (not p44) p31 p28) (or (not p1) p52 p17) (or p22 p7 p28) (or p19 (not p26) p7) (or p14 p1 (not p4)) (or p4 (not p52) (not p36)) (or p27 (not p15) (not p46)) (or (not p22) (not p34) (not p46)) (or p39 (not p22) (not p34)) (or (not p51) (not p31) (not p42)) (or (not p15) (not p48) (not p2)) (or (not p21) (not p5) p27) (or p33 p59 p57) (or (not p20) (not p30) (not p53)) (or (not p30) p22 (not p22)) (or (not p6) (not p3) p51) (or (not p24) p56 (not p28)) (or (not p24) (not p48) p37) (or (not p29) (not p46) p27) (or p18 (not p10) (not p57)) (or (not p41) p29 (not p20)) (or (not p26) p56 p23) (or p0 (not p0) p13) (or (not p31) p21 p22) (or p12 (not p14) (not p26)) (or (not p41) p8 p37) (or p27 (not p43) p13) (or p46 p40 p33) (or (not p42) (not p14) p56) (or p30 p33 (not p48)) (or (not p44) p19 (not p22)) (or p35 p46 (not p33)) (or p44 (not p42) (not p59)) (or p52 p44 (not p0)) (or p33 (not p51) p35) (or (not p32) (not p30) (not p19)) (or p22 p49 p47) (or p12 p7 p19) (or p44 p48 p27) (or (not p6) p49 p1) (or (not p56) (not p36) p48) (or (not p50) p37 p42) (or (not p2) (not p39) (not p46)) (or (not p0) p9 (not p14)) (or (not p18) p33 (not p34)) (or p54 p51 p53) (or (not p11) p59 p31) (or (not p3) (not p59) p18) (or (not p52) p0 (not p51)) (or (not p1) (not p43) (not p47)) (or (not p20) (not p7) p58) (or (not p31) (not p3) p29) (or p26 (not p38) (not p40)) (or (not p47) p56 (not p12)) (or p6 (not p47) p3) (or p52 (not p57) p44) (or p58 (not p26) (not p58)) (or p29 (not p48) (not p16)) (or p35 p44 p38) (or (not p44) (not p53) p31) (or p20 p14 (not p52)) (or p15 (not p15) (not p9)) (or (not p37) p31 p25) (or p29 p31 (not p57)) (or (not p6) (not p59) p10) (or p16 p37 p33) (or (not p30) p59 (not p43)) (or (not p28) (not p12) p11) (or (not p38) (not p9) p12) (or (not p8) p54 p58) (or (not p40) (not p3) (not p53)) (or (not p20) p21 p24) (or (not p21) (not p26) (not p13)) (or p9 (not p23) (not p58)) (or p5 (not p25) (not p30)) (or (not p21) p22 p35) (or (not p46) (not p26) p47) (or p26 (not p1) p56) (or p47 p44 (not p21)) (or p9 p40 p43) (or p23 p25 (not p41)) (or p11 (not p49) (not p53)) (or (not p14) p37 (not p54)) (or p29 p49 p55) (or (not p4) p24 (not p41)) (or (not p17) (not p30) p45) (or (not p30) (not p33) (not p49)) (or p6 p37 p14) (or (not p18) p1 (not p39)) (or (not p21) (not p27) p16) (or (not p56) p14 (not p36)) (or p15 (not p45) (not p18)) (or (not p39) (not p22) (not p58)) (or (not p26) p15 (not p24)) (or p38 (not p16) p43) (or p38 p23 p14) (or (not p21) p54 p58) (or p9 p48 p38) (or (not p52) p22 (not p15)) (or (not p31) p21 (not p38)) (or p9 p48 (not p31)) (or p32 p7 p58) (or (not p19) p44 p40) (or p56 (not p11) p14) (or p19 p45 (not p54)) (or p2 p45 (not p34)) (or p12 (not p1) (not p33)) (or (not p16) p57 p59) (or (not p43) p37 p29) (or (not p21) p22 p6) (or p20 p1 p30) (or (not p48) (not p11) p1) (or p6 p9 (not p33)) (or p4 (not p56) p13) (or p59 p29 p0) (or (not p4) (not p35) p11) (or p7 p48 (not p41)) (or p1 p20 (not p47)) (or p55 (not p38) p41) (or (not p52) p20 (not p34)) (or (not p29) (not p19) (not p34)) (or p27 (not p0) p34))
)
(check-sat)
(get-model)
